p edge 50 245
e 1 2
e 1 5
e 1 12
e 1 19
e 1 20
e 1 23
e 1 28
e 1 31
e 1 32
e 1 33
e 1 37
e 1 39
e 1 43
e 1 46
e 2 6
e 2 12
e 2 13
e 2 17
e 2 19
e 2 20
e 2 22
e 2 29
e 2 35
e 2 36
e 2 37
e 2 40
e 2 44
e 2 50
e 3 8
e 3 10
e 3 15
e 3 19
e 3 20
e 3 28
e 3 43
e 3 47
e 4 6
e 4 23
e 4 30
e 4 32
e 4 36
e 4 39
e 4 42
e 4 44
e 4 47
e 5 6
e 5 7
e 5 11
e 5 21
e 5 26
e 5 28
e 5 37
e 6 9
e 6 13
e 6 15
e 6 16
e 6 18
e 6 22
e 6 24
e 6 26
e 6 28
e 6 34
e 6 35
e 6 39
e 6 44
e 7 9
e 7 10
e 7 16
e 7 19
e 7 31
e 7 32
e 7 34
e 7 35
e 7 40
e 7 42
e 7 47
e 7 49
e 8 14
e 8 15
e 8 22
e 8 41
e 9 18
e 9 33
e 9 48
e 9 49
e 10 12
e 10 17
e 10 20
e 10 33
e 10 38
e 10 41
e 10 45
e 11 20
e 11 23
e 11 31
e 11 32
e 11 38
e 11 43
e 11 45
e 11 46
e 11 49
e 12 21
e 12 22
e 12 23
e 12 27
e 12 35
e 12 36
e 12 44
e 12 45
e 13 24
e 13 31
e 13 32
e 13 36
e 13 37
e 13 40
e 13 41
e 13 49
e 14 26
e 14 28
e 14 37
e 14 41
e 14 47
e 15 18
e 15 19
e 15 36
e 15 48
e 16 19
e 16 27
e 16 31
e 16 33
e 16 38
e 16 41
e 16 46
e 17 19
e 17 21
e 17 22
e 17 23
e 17 24
e 17 26
e 17 27
e 17 30
e 17 42
e 17 49
e 17 50
e 18 20
e 18 26
e 18 27
e 18 33
e 18 35
e 18 38
e 18 39
e 18 42
e 18 45
e 18 49
e 19 28
e 19 35
e 19 43
e 20 26
e 20 37
e 20 39
e 20 40
e 20 42
e 21 35
e 21 36
e 21 43
e 21 49
e 22 25
e 22 30
e 22 34
e 22 35
e 22 36
e 22 42
e 23 39
e 23 45
e 23 47
e 23 49
e 23 50
e 24 25
e 24 28
e 24 33
e 24 34
e 24 36
e 24 42
e 24 44
e 24 49
e 25 36
e 25 44
e 25 50
e 26 29
e 26 48
e 27 31
e 27 33
e 27 45
e 28 29
e 28 30
e 28 31
e 28 35
e 28 47
e 29 30
e 29 32
e 29 37
e 29 39
e 29 41
e 30 35
e 30 36
e 30 49
e 31 32
e 31 34
e 31 46
e 31 47
e 32 34
e 33 34
e 33 43
e 34 35
e 34 39
e 34 47
e 35 36
e 35 38
e 35 40
e 36 37
e 36 39
e 36 43
e 36 46
e 36 50
e 37 39
e 37 40
e 37 42
e 37 47
e 38 39
e 38 48
e 39 40
e 40 41
e 40 42
e 40 44
e 40 46
e 40 49
e 41 42
e 41 46
e 42 44
e 43 49
e 44 47
e 44 50
e 47 49
e 47 50
e 49 50
